experiment/data/lkh-res/Vrp-Set-Golden-n397/Vrp-Set-Golden-n397-lkh/0.lkh1.tour
NAME : 0.136750.tour
COMMENT : Length = 136750
COMMENT : Found by LKH-3 [Keld Helsgaun] Tue Apr  9 02:08:46 2024
TYPE : TOUR
DIMENSION : 429
TOUR_SECTION
1
11
29
30
12
407
58
92
134
184
242
308
307
241
183
133
91
57
411
107
153
207
269
339
338
337
336
335
266
267
268
206
152
106
68
398
61
97
96
95
59
31
32
424
135
185
243
309
310
311
312
313
314
246
245
244
186
136
93
400
188
187
247
315
391
390
389
388
387
386
385
384
383
382
381
380
306
240
239
419
141
193
253
252
320
321
397
396
395
394
318
319
251
191
192
140
418
25
26
50
81
80
48
24
410
167
223
287
360
359
358
357
356
355
354
353
352
280
281
282
283
284
221
165
423
15
36
64
65
37
38
16
428
43
112
113
159
160
214
213
212
158
157
156
110
72
408
122
170
226
291
290
362
363
364
365
293
292
228
227
171
123
82
415
151
205
204
265
264
334
333
332
331
330
329
328
327
326
325
257
256
196
144
406
105
150
149
203
202
201
263
262
261
260
200
148
103
104
67
427
53
87
129
179
237
303
376
377
378
379
305
304
238
180
130
403
126
176
234
233
299
373
372
298
232
174
175
125
84
51
412
83
124
173
230
231
297
371
370
369
368
296
295
367
366
294
229
172
426
109
155
209
210
211
273
344
343
342
272
271
341
340
270
208
154
108
421
34
62
98
142
194
254
322
323
324
255
195
143
99
63
416
86
128
178
236
302
375
374
300
301
235
177
127
85
52
413
60
139
138
190
250
317
393
392
316
248
249
189
137
94
425
21
44
76
116
115
75
74
73
42
414
19
20
6
7
399
8
49
121
169
225
289
361
288
224
168
120
422
114
161
215
216
278
279
351
350
349
348
347
277
276
346
345
275
274
111
420
45
77
117
164
163
162
217
218
219
220
285
286
222
166
404
13
33
14
2
401
5
41
71
70
69
39
40
417
22
46
78
118
119
79
47
23
409
66
102
146
147
199
259
258
198
197
145
101
100
35
402
4
18
17
3
405
9
27
28
10
429
54
88
89
131
181
182
132
90
56
55
-1
EOF
